<?xml version = "1.0" encoding="UTF-8" standalone="yes"?>
<CPLEXSolution version="1.2">
 <header
   problemName="ilog.cplex"
   solutionName="incumbent"
   solutionIndex="-1"
   objectiveValue="16"
   solutionTypeValue="3"
   solutionTypeString="primal"
   solutionStatusValue="101"
   solutionStatusString="integer optimal solution"
   solutionMethodString="mip"
   primalFeasible="1"
   dualFeasible="1"
   MIPNodes="550"
   MIPIterations="2227"
   writeLevel="3"/>
 <quality
   epInt="1.0000000000000001e-05"
   epRHS="9.9999999999999995e-07"
   maxIntInfeas="0"
   maxPrimalInfeas="0"
   maxX="9"
   maxSlack="78"/>
 <variables>
  <variable name="x_0_6_0" index="25" value="1"/>
  <variable name="x_6_0_0" index="34" value="1"/>
  <variable name="x_0_9_1" index="46" value="1"/>
  <variable name="x_9_0_1" index="55" value="1"/>
  <variable name="y_0_0" index="201" value="1"/>
  <variable name="y_1_1" index="202" value="1"/>
  <variable name="u_1_0" index="204" value="9"/>
  <variable name="u_2_0" index="205" value="9"/>
  <variable name="u_1_1" index="206" value="9"/>
  <variable name="u_2_1" index="207" value="9"/>
  <variable name="u_3_0" index="208" value="9"/>
  <variable name="u_3_1" index="209" value="9"/>
  <variable name="u_4_0" index="210" value="9"/>
  <variable name="u_4_1" index="211" value="9"/>
  <variable name="u_5_0" index="212" value="9"/>
  <variable name="u_5_1" index="213" value="9"/>
  <variable name="u_6_0" index="214" value="9"/>
  <variable name="u_6_1" index="215" value="9"/>
  <variable name="u_7_0" index="216" value="9"/>
  <variable name="u_7_1" index="217" value="9"/>
  <variable name="u_8_0" index="218" value="9"/>
  <variable name="u_8_1" index="219" value="9"/>
  <variable name="u_9_0" index="220" value="9"/>
  <variable name="u_9_1" index="221" value="9"/>
 </variables>
 <objectiveValues>
  <objective index="0" name="" value="16"/>
 </objectiveValues>
</CPLEXSolution>
